20 1 3
986 265 139 686 19 225 637 174 301 551 36 680 44 568 956 537 852 808 547 659 
284 200 108 198 213 187 503 655 967 232 871 953 497 9 638 515 234 275 689 534 
825 724 213 869 292 168 405 144 975 951 802 258 151 909 456 363 96 959 17 63 
1900 8870 150 6860 8960 6520 2010 1290 9260 8890 6620 7510 6130 8740 6190 9050 410 240 480 160 
50120
